Route #1: 18 8 46 45 17 84 5 93 85 98 92 95 94
Route #2: 59 37 100 91 44 14 38 86 16 61 99 96 6
Route #3: 13 97 87 42 43 15 57 41 22 74 73 2 58
Route #4: 53
Route #5: 40 21 72 75 56 23 67 39 25 55 4 26
Route #6: 12 68 80 54 24 29 34 78 79 3 77 76 28
Route #7: 1 51 20 66 71 65 35 9 81 33 50
Route #8: 27 69 70 30 32 90 63 64 11 62 10 31
Route #9: 89 60 83 82 48 47 36 49 19 7 88 52
Cost 848
